p cnf 966 2481
51 -699 -1 0
-51 699 0
-51 1 0
52 -51 -700 0
-52 51 0
-52 700 0
53 -5 -4 0
-53 5 0
-53 4 0
54 -53 -701 0
-54 53 0
-54 701 0
55 -702 -703 0
-55 702 0
-55 703 0
56 -704 -7 0
-56 704 0
-56 7 0
57 -56 -705 0
-57 56 0
-57 705 0
58 -706 -55 0
-58 706 0
-58 55 0
59 -707 -708 0
-59 707 0
-59 708 0
60 -59 -709 0
-60 59 0
-60 709 0
61 -710 -58 0
-61 710 0
-61 58 0
62 -13 -711 0
-62 13 0
-62 711 0
63 -62 -14 0
-63 62 0
-63 14 0
64 -712 -61 0
-64 712 0
-64 61 0
65 -16 -15 0
-65 16 0
-65 15 0
66 -65 -17 0
-66 65 0
-66 17 0
67 -713 -64 0
-67 713 0
-67 64 0
68 -714 -4 0
-68 714 0
-68 4 0
69 -68 -715 0
-69 68 0
-69 715 0
70 -716 -67 0
-70 716 0
-70 67 0
71 -717 -18 0
-71 717 0
-71 18 0
72 -71 -718 0
-72 71 0
-72 718 0
73 -719 -70 0
-73 719 0
-73 70 0
74 -707 -6 0
-74 707 0
-74 6 0
75 -74 -11 0
-75 74 0
-75 11 0
76 -720 -73 0
-76 720 0
-76 73 0
77 -23 -22 0
-77 23 0
-77 22 0
78 -77 -721 0
-78 77 0
-78 721 0
79 -722 -76 0
-79 722 0
-79 76 0
80 -5 -699 0
-80 5 0
-80 699 0
81 -80 -723 0
-81 80 0
-81 723 0
82 -724 -79 0
-82 724 0
-82 79 0
83 -26 -707 0
-83 26 0
-83 707 0
84 -83 -700 0
-84 83 0
-84 700 0
85 -725 -82 0
-85 725 0
-85 82 0
86 -27 -26 0
-86 27 0
-86 26 0
87 -86 -23 0
-87 86 0
-87 23 0
88 -726 -85 0
-88 726 0
-88 85 0
89 -727 -1 0
-89 727 0
-89 1 0
90 -89 -728 0
-90 89 0
-90 728 0
91 -729 -88 0
-91 729 0
-91 88 0
92 -721 -22 0
-92 721 0
-92 22 0
93 -92 -29 0
-93 92 0
-93 29 0
94 -730 -91 0
-94 730 0
-94 91 0
95 -30 -731 0
-95 30 0
-95 731 0
96 -95 -732 0
-96 95 0
-96 732 0
97 -733 -94 0
-97 733 0
-97 94 0
98 -22 -7 0
-98 22 0
-98 7 0
99 -98 -6 0
-99 98 0
-99 6 0
100 -734 -97 0
-100 734 0
-100 97 0
101 -735 -18 0
-101 735 0
-101 18 0
102 -101 -23 0
-102 101 0
-102 23 0
103 -736 -100 0
-103 736 0
-103 100 0
104 -737 -3 0
-104 737 0
-104 3 0
105 -104 -721 0
-105 104 0
-105 721 0
106 -738 -103 0
-106 738 0
-106 103 0
107 -739 -704 0
-107 739 0
-107 704 0
108 -107 -32 0
-108 107 0
-108 32 0
109 -740 -106 0
-109 740 0
-109 106 0
110 -32 -741 0
-110 32 0
-110 741 0
111 -110 -34 0
-111 110 0
-111 34 0
112 -742 -109 0
-112 742 0
-112 109 0
113 -35 -727 0
-113 35 0
-113 727 0
114 -113 -731 0
-114 113 0
-114 731 0
115 -743 -112 0
-115 743 0
-115 112 0
116 -744 -28 0
-116 744 0
-116 28 0
117 -116 -6 0
-117 116 0
-117 6 0
118 -745 -115 0
-118 745 0
-118 115 0
119 -13 -704 0
-119 13 0
-119 704 0
120 -119 -721 0
-120 119 0
-120 721 0
121 -746 -118 0
-121 746 0
-121 118 0
122 -32 -3 0
-122 32 0
-122 3 0
123 -122 -37 0
-123 122 0
-123 37 0
124 -747 -121 0
-124 747 0
-124 121 0
125 -38 -744 0
-125 38 0
-125 744 0
126 -125 -748 0
-126 125 0
-126 748 0
127 -749 -124 0
-127 749 0
-127 124 0
128 -723 -1 0
-128 723 0
-128 1 0
129 -128 -34 0
-129 128 0
-129 34 0
130 -750 -127 0
-130 750 0
-130 127 0
131 -751 -714 0
-131 751 0
-131 714 0
132 -131 -728 0
-132 131 0
-132 728 0
133 -752 -130 0
-133 752 0
-133 130 0
134 -735 -714 0
-134 735 0
-134 714 0
135 -134 -732 0
-135 134 0
-135 732 0
136 -753 -133 0
-136 753 0
-136 133 0
137 -22 -717 0
-137 22 0
-137 717 0
138 -137 -40 0
-138 137 0
-138 40 0
139 -754 -136 0
-139 754 0
-139 136 0
140 -35 -755 0
-140 35 0
-140 755 0
141 -140 -707 0
-141 140 0
-141 707 0
142 -756 -139 0
-142 756 0
-142 139 0
143 -731 -701 0
-143 731 0
-143 701 0
144 -143 -24 0
-144 143 0
-144 24 0
145 -757 -142 0
-145 757 0
-145 142 0
146 -41 -2 0
-146 41 0
-146 2 0
147 -146 -11 0
-147 146 0
-147 11 0
148 -758 -145 0
-148 758 0
-148 145 0
149 -42 -41 0
-149 42 0
-149 41 0
150 -149 -28 0
-150 149 0
-150 28 0
151 -759 -148 0
-151 759 0
-151 148 0
152 -705 -700 0
-152 705 0
-152 700 0
153 -152 -25 0
-153 152 0
-153 25 0
154 -760 -151 0
-154 760 0
-154 151 0
155 -11 -9 0
-155 11 0
-155 9 0
156 -155 -43 0
-156 155 0
-156 43 0
157 -761 -154 0
-157 761 0
-157 154 0
158 -6 -762 0
-158 6 0
-158 762 0
159 -158 -2 0
-159 158 0
-159 2 0
160 -763 -157 0
-160 763 0
-160 157 0
161 -12 -5 0
-161 12 0
-161 5 0
162 -161 -764 0
-162 161 0
-162 764 0
163 -765 -160 0
-163 765 0
-163 160 0
164 -44 -8 0
-164 44 0
-164 8 0
165 -164 -766 0
-165 164 0
-165 766 0
166 -767 -163 0
-166 767 0
-166 163 0
167 -768 -15 0
-167 768 0
-167 15 0
168 -167 -769 0
-168 167 0
-168 769 0
169 -770 -166 0
-169 770 0
-169 166 0
170 -731 -741 0
-170 731 0
-170 741 0
171 -170 -29 0
-171 170 0
-171 29 0
172 -771 -169 0
-172 771 0
-172 169 0
173 -772 -709 0
-173 772 0
-173 709 0
174 -173 -773 0
-174 173 0
-174 773 0
175 -774 -172 0
-175 774 0
-175 172 0
176 -772 -701 0
-176 772 0
-176 701 0
177 -176 -775 0
-177 176 0
-177 775 0
178 -776 -175 0
-178 776 0
-178 175 0
179 -20 -707 0
-179 20 0
-179 707 0
180 -179 -48 0
-180 179 0
-180 48 0
181 -777 -178 0
-181 777 0
-181 178 0
182 -755 -714 0
-182 755 0
-182 714 0
183 -182 -19 0
-183 182 0
-183 19 0
184 -778 -181 0
-184 778 0
-184 181 0
185 -45 -779 0
-185 45 0
-185 779 0
186 -185 -30 0
-186 185 0
-186 30 0
187 -780 -184 0
-187 780 0
-187 184 0
188 -781 -7 0
-188 781 0
-188 7 0
189 -188 -44 0
-189 188 0
-189 44 0
190 -782 -187 0
-190 782 0
-190 187 0
191 -27 -723 0
-191 27 0
-191 723 0
192 -191 -19 0
-192 191 0
-192 19 0
193 -783 -190 0
-193 783 0
-193 190 0
194 -36 -22 0
-194 36 0
-194 22 0
195 -194 -735 0
-195 194 0
-195 735 0
196 -784 -193 0
-196 784 0
-196 193 0
197 -35 -7 0
-197 35 0
-197 7 0
198 -197 -2 0
-198 197 0
-198 2 0
199 -785 -196 0
-199 785 0
-199 196 0
200 -786 -9 0
-200 786 0
-200 9 0
201 -200 -20 0
-201 200 0
-201 20 0
202 -787 -199 0
-202 787 0
-202 199 0
203 -26 -727 0
-203 26 0
-203 727 0
204 -203 -735 0
-204 203 0
-204 735 0
205 -788 -202 0
-205 788 0
-205 202 0
206 -781 -744 0
-206 781 0
-206 744 0
207 -206 -721 0
-207 206 0
-207 721 0
208 -789 -205 0
-208 789 0
-208 205 0
209 -49 -5 0
-209 49 0
-209 5 0
210 -209 -31 0
-210 209 0
-210 31 0
211 -790 -208 0
-211 790 0
-211 208 0
212 -791 -718 0
-212 791 0
-212 718 0
213 -212 -792 0
-213 212 0
-213 792 0
214 -793 -211 0
-214 793 0
-214 211 0
215 -35 -18 0
-215 35 0
-215 18 0
216 -215 -773 0
-216 215 0
-216 773 0
217 -794 -214 0
-217 794 0
-217 214 0
218 -795 -6 0
-218 795 0
-218 6 0
219 -218 -31 0
-219 218 0
-219 31 0
220 -796 -217 0
-220 796 0
-220 217 0
221 -711 -741 0
-221 711 0
-221 741 0
222 -221 -704 0
-222 221 0
-222 704 0
223 -797 -220 0
-223 797 0
-223 220 0
224 -41 -744 0
-224 41 0
-224 744 0
225 -224 -30 0
-225 224 0
-225 30 0
226 -798 -223 0
-226 798 0
-226 223 0
227 -41 -707 0
-227 41 0
-227 707 0
228 -227 -764 0
-228 227 0
-228 764 0
229 -799 -226 0
-229 799 0
-229 226 0
230 -38 -728 0
-230 38 0
-230 728 0
231 -230 -766 0
-231 230 0
-231 766 0
232 -800 -229 0
-232 800 0
-232 229 0
233 -35 -801 0
-233 35 0
-233 801 0
234 -233 -30 0
-234 233 0
-234 30 0
235 -802 -232 0
-235 802 0
-235 232 0
236 -37 -11 0
-236 37 0
-236 11 0
237 -236 -803 0
-237 236 0
-237 803 0
238 -804 -235 0
-238 804 0
-238 235 0
239 -16 -704 0
-239 16 0
-239 704 0
240 -239 -772 0
-240 239 0
-240 772 0
241 -805 -238 0
-241 805 0
-241 238 0
242 -806 -13 0
-242 806 0
-242 13 0
243 -242 -803 0
-243 242 0
-243 803 0
244 -807 -241 0
-244 807 0
-244 241 0
245 -781 -762 0
-245 781 0
-245 762 0
246 -245 -2 0
-246 245 0
-246 2 0
247 -808 -244 0
-247 808 0
-247 244 0
248 -735 -12 0
-248 735 0
-248 12 0
249 -248 -705 0
-249 248 0
-249 705 0
250 -809 -247 0
-250 809 0
-250 247 0
251 -39 -741 0
-251 39 0
-251 741 0
252 -251 -30 0
-252 251 0
-252 30 0
253 -810 -250 0
-253 810 0
-253 250 0
254 -62 -10 0
-254 62 0
-254 10 0
255 -811 -253 0
-255 811 0
-255 253 0
256 -791 -786 0
-256 791 0
-256 786 0
257 -256 -721 0
-257 256 0
-257 721 0
258 -812 -255 0
-258 812 0
-258 255 0
259 -44 -21 0
-259 44 0
-259 21 0
260 -259 -715 0
-260 259 0
-260 715 0
261 -813 -258 0
-261 813 0
-261 258 0
262 -792 -755 0
-262 792 0
-262 755 0
263 -262 -773 0
-263 262 0
-263 773 0
264 -814 -261 0
-264 814 0
-264 261 0
265 -31 -705 0
-265 31 0
-265 705 0
266 -265 -769 0
-266 265 0
-266 769 0
267 -815 -264 0
-267 815 0
-267 264 0
268 -18 -6 0
-268 18 0
-268 6 0
269 -268 -705 0
-269 268 0
-269 705 0
270 -816 -267 0
-270 816 0
-270 267 0
271 -711 -7 0
-271 711 0
-271 7 0
272 -271 -16 0
-272 271 0
-272 16 0
273 -817 -270 0
-273 817 0
-273 270 0
274 -44 -739 0
-274 44 0
-274 739 0
275 -274 -29 0
-275 274 0
-275 29 0
276 -818 -273 0
-276 818 0
-276 273 0
277 -806 -33 0
-277 806 0
-277 33 0
278 -277 -37 0
-278 277 0
-278 37 0
279 -819 -276 0
-279 819 0
-279 276 0
280 -28 -820 0
-280 28 0
-280 820 0
281 -280 -9 0
-281 280 0
-281 9 0
282 -821 -279 0
-282 821 0
-282 279 0
283 -36 -4 0
-283 36 0
-283 4 0
284 -283 -820 0
-284 283 0
-284 820 0
285 -822 -282 0
-285 822 0
-285 282 0
286 -41 -21 0
-286 41 0
-286 21 0
287 -286 -25 0
-287 286 0
-287 25 0
288 -823 -285 0
-288 823 0
-288 285 0
289 -806 -737 0
-289 806 0
-289 737 0
290 -289 -786 0
-290 289 0
-290 786 0
291 -824 -288 0
-291 824 0
-291 288 0
292 -751 -735 0
-292 751 0
-292 735 0
293 -292 -717 0
-293 292 0
-293 717 0
294 -825 -291 0
-294 825 0
-294 291 0
295 -32 -22 0
-295 32 0
-295 22 0
296 -295 -30 0
-296 295 0
-296 30 0
297 -826 -294 0
-297 826 0
-297 294 0
298 -15 -708 0
-298 15 0
-298 708 0
299 -298 -748 0
-299 298 0
-299 748 0
300 -827 -297 0
-300 827 0
-300 297 0
301 -45 -7 0
-301 45 0
-301 7 0
302 -301 -48 0
-302 301 0
-302 48 0
303 -828 -300 0
-303 828 0
-303 300 0
304 -49 -6 0
-304 49 0
-304 6 0
305 -304 -773 0
-305 304 0
-305 773 0
306 -829 -303 0
-306 829 0
-306 303 0
307 -766 -769 0
-307 766 0
-307 769 0
308 -307 -721 0
-308 307 0
-308 721 0
309 -830 -306 0
-309 830 0
-309 306 0
310 -33 -32 0
-310 33 0
-310 32 0
311 -310 -775 0
-311 310 0
-311 775 0
312 -831 -309 0
-312 831 0
-312 309 0
313 -12 -11 0
-313 12 0
-313 11 0
314 -313 -715 0
-314 313 0
-314 715 0
315 -832 -312 0
-315 832 0
-315 312 0
316 -39 -801 0
-316 39 0
-316 801 0
317 -316 -29 0
-317 316 0
-317 29 0
318 -833 -315 0
-318 833 0
-318 315 0
319 -15 -8 0
-319 15 0
-319 8 0
320 -319 -23 0
-320 319 0
-320 23 0
321 -834 -318 0
-321 834 0
-321 318 0
322 -3 -762 0
-322 3 0
-322 762 0
323 -322 -723 0
-323 322 0
-323 723 0
324 -835 -321 0
-324 835 0
-324 321 0
325 -744 -11 0
-325 744 0
-325 11 0
326 -325 -34 0
-326 325 0
-326 34 0
327 -836 -324 0
-327 836 0
-327 324 0
328 -45 -13 0
-328 45 0
-328 13 0
329 -328 -764 0
-329 328 0
-329 764 0
330 -837 -327 0
-330 837 0
-330 327 0
331 -708 -3 0
-331 708 0
-331 3 0
332 -331 -20 0
-332 331 0
-332 20 0
333 -838 -330 0
-333 838 0
-333 330 0
334 -781 -4 0
-334 781 0
-334 4 0
335 -334 -748 0
-335 334 0
-335 748 0
336 -839 -333 0
-336 839 0
-336 333 0
337 -21 -739 0
-337 21 0
-337 739 0
338 -337 -29 0
-338 337 0
-338 29 0
339 -840 -336 0
-339 840 0
-339 336 0
340 -751 -841 0
-340 751 0
-340 841 0
341 -340 -30 0
-341 340 0
-341 30 0
342 -842 -339 0
-342 842 0
-342 339 0
343 -791 -15 0
-343 791 0
-343 15 0
344 -343 -843 0
-344 343 0
-344 843 0
345 -844 -342 0
-345 844 0
-345 342 0
346 -45 -705 0
-346 45 0
-346 705 0
347 -346 -723 0
-347 346 0
-347 723 0
348 -845 -345 0
-348 845 0
-348 345 0
349 -50 -737 0
-349 50 0
-349 737 0
350 -349 -9 0
-350 349 0
-350 9 0
351 -846 -348 0
-351 846 0
-351 348 0
352 -768 -1 0
-352 768 0
-352 1 0
353 -352 -709 0
-353 352 0
-353 709 0
354 -847 -351 0
-354 847 0
-354 351 0
355 -41 -38 0
-355 41 0
-355 38 0
356 -355 -46 0
-356 355 0
-356 46 0
357 -848 -354 0
-357 848 0
-357 354 0
358 -15 -707 0
-358 15 0
-358 707 0
359 -358 -723 0
-359 358 0
-359 723 0
360 -849 -357 0
-360 849 0
-360 357 0
361 -44 -700 0
-361 44 0
-361 700 0
362 -361 -850 0
-362 361 0
-362 850 0
363 -851 -360 0
-363 851 0
-363 360 0
364 -39 -744 0
-364 39 0
-364 744 0
365 -364 -731 0
-365 364 0
-365 731 0
366 -852 -363 0
-366 852 0
-366 363 0
367 -37 -739 0
-367 37 0
-367 739 0
368 -367 -30 0
-368 367 0
-368 30 0
369 -853 -366 0
-369 853 0
-369 366 0
370 -795 -772 0
-370 795 0
-370 772 0
371 -370 -24 0
-371 370 0
-371 24 0
372 -854 -369 0
-372 854 0
-372 369 0
373 -792 -791 0
-373 792 0
-373 791 0
374 -373 -773 0
-374 373 0
-374 773 0
375 -855 -372 0
-375 855 0
-375 372 0
376 -12 -705 0
-376 12 0
-376 705 0
377 -376 -792 0
-377 376 0
-377 792 0
378 -856 -375 0
-378 856 0
-378 375 0
379 -316 -21 0
-379 316 0
-379 21 0
380 -857 -378 0
-380 857 0
-380 378 0
381 -795 -15 0
-381 795 0
-381 15 0
382 -381 -858 0
-382 381 0
-382 858 0
383 -859 -380 0
-383 859 0
-383 380 0
384 -708 -762 0
-384 708 0
-384 762 0
385 -384 -45 0
-385 384 0
-385 45 0
386 -860 -383 0
-386 860 0
-386 383 0
387 -806 -2 0
-387 806 0
-387 2 0
388 -387 -700 0
-388 387 0
-388 700 0
389 -861 -386 0
-389 861 0
-389 386 0
390 -858 -786 0
-390 858 0
-390 786 0
391 -390 -715 0
-391 390 0
-391 715 0
392 -862 -389 0
-392 862 0
-392 389 0
393 -13 -8 0
-393 13 0
-393 8 0
394 -393 -6 0
-394 393 0
-394 6 0
395 -863 -392 0
-395 863 0
-395 392 0
396 -16 -711 0
-396 16 0
-396 711 0
397 -396 -717 0
-397 396 0
-397 717 0
398 -864 -395 0
-398 864 0
-398 395 0
399 -39 -704 0
-399 39 0
-399 704 0
400 -399 -766 0
-400 399 0
-400 766 0
401 -865 -398 0
-401 865 0
-401 398 0
402 -22 -15 0
-402 22 0
-402 15 0
403 -402 -45 0
-403 402 0
-403 45 0
404 -866 -401 0
-404 866 0
-404 401 0
405 -45 -721 0
-405 45 0
-405 721 0
406 -405 -803 0
-406 405 0
-406 803 0
407 -867 -404 0
-407 867 0
-407 404 0
408 -40 -36 0
-408 40 0
-408 36 0
409 -408 -803 0
-409 408 0
-409 803 0
410 -868 -407 0
-410 868 0
-410 407 0
411 -768 -4 0
-411 768 0
-411 4 0
412 -411 -23 0
-412 411 0
-412 23 0
413 -869 -410 0
-413 869 0
-413 410 0
414 -772 -870 0
-414 772 0
-414 870 0
415 -414 -803 0
-415 414 0
-415 803 0
416 -871 -413 0
-416 871 0
-416 413 0
417 -843 -8 0
-417 843 0
-417 8 0
418 -417 -46 0
-418 417 0
-418 46 0
419 -872 -416 0
-419 872 0
-419 416 0
420 -50 -36 0
-420 50 0
-420 36 0
421 -420 -14 0
-421 420 0
-421 14 0
422 -873 -419 0
-422 873 0
-422 419 0
423 -35 -786 0
-423 35 0
-423 786 0
424 -423 -773 0
-424 423 0
-424 773 0
425 -874 -422 0
-425 874 0
-425 422 0
426 -727 -4 0
-426 727 0
-426 4 0
427 -426 -773 0
-427 426 0
-427 773 0
428 -875 -425 0
-428 875 0
-428 425 0
429 -764 -769 0
-429 764 0
-429 769 0
430 -429 -723 0
-430 429 0
-430 723 0
431 -876 -428 0
-431 876 0
-431 428 0
432 -806 -723 0
-432 806 0
-432 723 0
433 -432 -792 0
-433 432 0
-433 792 0
434 -877 -431 0
-434 877 0
-434 431 0
435 -28 -731 0
-435 28 0
-435 731 0
436 -435 -25 0
-436 435 0
-436 25 0
437 -878 -434 0
-437 878 0
-437 434 0
438 -781 -38 0
-438 781 0
-438 38 0
439 -438 -3 0
-439 438 0
-439 3 0
440 -879 -437 0
-440 879 0
-440 437 0
441 -781 -16 0
-441 781 0
-441 16 0
442 -441 -21 0
-442 441 0
-442 21 0
443 -880 -440 0
-443 880 0
-443 440 0
444 -50 -10 0
-444 50 0
-444 10 0
445 -444 -47 0
-445 444 0
-445 47 0
446 -881 -443 0
-446 881 0
-446 443 0
447 -820 -11 0
-447 820 0
-447 11 0
448 -447 -721 0
-448 447 0
-448 721 0
449 -882 -446 0
-449 882 0
-449 446 0
450 -786 -3 0
-450 786 0
-450 3 0
451 -450 -23 0
-451 450 0
-451 23 0
452 -883 -449 0
-452 883 0
-452 449 0
453 -12 -701 0
-453 12 0
-453 701 0
454 -453 -764 0
-454 453 0
-454 764 0
455 -884 -452 0
-455 884 0
-455 452 0
456 -768 -35 0
-456 768 0
-456 35 0
457 -456 -709 0
-457 456 0
-457 709 0
458 -885 -455 0
-458 885 0
-458 455 0
459 -212 -858 0
-459 212 0
-459 858 0
460 -886 -458 0
-460 886 0
-460 458 0
461 -731 -22 0
-461 731 0
-461 22 0
462 -461 -732 0
-462 461 0
-462 732 0
463 -887 -460 0
-463 887 0
-463 460 0
464 -735 -704 0
-464 735 0
-464 704 0
465 -464 -47 0
-465 464 0
-465 47 0
466 -888 -463 0
-466 888 0
-466 463 0
467 -779 -732 0
-467 779 0
-467 732 0
468 -467 -773 0
-468 467 0
-468 773 0
469 -889 -466 0
-469 889 0
-469 466 0
470 -39 -11 0
-470 39 0
-470 11 0
471 -470 -718 0
-471 470 0
-471 718 0
472 -890 -469 0
-472 890 0
-472 469 0
473 -36 -704 0
-473 36 0
-473 704 0
474 -473 -792 0
-474 473 0
-474 792 0
475 -891 -472 0
-475 891 0
-475 472 0
476 -768 -17 0
-476 768 0
-476 17 0
477 -476 -803 0
-477 476 0
-477 803 0
478 -892 -475 0
-478 892 0
-478 475 0
479 -35 -15 0
-479 35 0
-479 15 0
480 -479 -14 0
-480 479 0
-480 14 0
481 -893 -478 0
-481 893 0
-481 478 0
482 -28 -721 0
-482 28 0
-482 721 0
483 -482 -48 0
-483 482 0
-483 48 0
484 -894 -481 0
-484 894 0
-484 481 0
485 -43 -34 0
-485 43 0
-485 34 0
486 -485 -29 0
-486 485 0
-486 29 0
487 -895 -484 0
-487 895 0
-487 484 0
488 -40 -25 0
-488 40 0
-488 25 0
489 -488 -48 0
-489 488 0
-489 48 0
490 -896 -487 0
-490 896 0
-490 487 0
491 -806 -711 0
-491 806 0
-491 711 0
492 -491 -38 0
-492 491 0
-492 38 0
493 -897 -490 0
-493 897 0
-493 490 0
494 -36 -762 0
-494 36 0
-494 762 0
495 -494 -748 0
-495 494 0
-495 748 0
496 -898 -493 0
-496 898 0
-496 493 0
497 -39 -33 0
-497 39 0
-497 33 0
498 -497 -46 0
-498 497 0
-498 46 0
499 -899 -496 0
-499 899 0
-499 496 0
500 -748 -705 0
-500 748 0
-500 705 0
501 -500 -44 0
-501 500 0
-501 44 0
502 -900 -499 0
-502 900 0
-502 499 0
503 -48 -32 0
-503 48 0
-503 32 0
504 -503 -803 0
-504 503 0
-504 803 0
505 -901 -502 0
-505 901 0
-505 502 0
506 -49 -42 0
-506 49 0
-506 42 0
507 -506 -44 0
-507 506 0
-507 44 0
508 -902 -505 0
-508 902 0
-508 505 0
509 -737 -741 0
-509 737 0
-509 741 0
510 -509 -15 0
-510 509 0
-510 15 0
511 -903 -508 0
-511 903 0
-511 508 0
512 -5 -1 0
-512 5 0
-512 1 0
513 -512 -795 0
-513 512 0
-513 795 0
514 -904 -511 0
-514 904 0
-514 511 0
515 -731 -762 0
-515 731 0
-515 762 0
516 -515 -16 0
-516 515 0
-516 16 0
517 -905 -514 0
-517 905 0
-517 514 0
518 -741 -699 0
-518 741 0
-518 699 0
519 -518 -843 0
-519 518 0
-519 843 0
520 -906 -517 0
-520 906 0
-520 517 0
521 -786 -12 0
-521 786 0
-521 12 0
522 -521 -40 0
-522 521 0
-522 40 0
523 -907 -520 0
-523 907 0
-523 520 0
524 -707 -7 0
-524 707 0
-524 7 0
525 -524 -9 0
-525 524 0
-525 9 0
526 -908 -523 0
-526 908 0
-526 523 0
527 -23 -8 0
-527 23 0
-527 8 0
528 -527 -803 0
-528 527 0
-528 803 0
529 -909 -526 0
-529 909 0
-529 526 0
530 -23 -801 0
-530 23 0
-530 801 0
531 -530 -766 0
-531 530 0
-531 766 0
532 -910 -529 0
-532 910 0
-532 529 0
533 -45 -2 0
-533 45 0
-533 2 0
534 -533 -43 0
-534 533 0
-534 43 0
535 -911 -532 0
-535 911 0
-535 532 0
536 -806 -699 0
-536 806 0
-536 699 0
537 -536 -3 0
-537 536 0
-537 3 0
538 -912 -535 0
-538 912 0
-538 535 0
539 -841 -15 0
-539 841 0
-539 15 0
540 -539 -764 0
-540 539 0
-540 764 0
541 -913 -538 0
-541 913 0
-541 538 0
542 -806 -801 0
-542 806 0
-542 801 0
543 -542 -792 0
-543 542 0
-543 792 0
544 -914 -541 0
-544 914 0
-544 541 0
545 -744 -22 0
-545 744 0
-545 22 0
546 -545 -775 0
-546 545 0
-546 775 0
547 -915 -544 0
-547 915 0
-547 544 0
548 -41 -786 0
-548 41 0
-548 786 0
549 -548 -843 0
-549 548 0
-549 843 0
550 -916 -547 0
-550 916 0
-550 547 0
551 -40 -727 0
-551 40 0
-551 727 0
552 -551 -773 0
-552 551 0
-552 773 0
553 -917 -550 0
-553 917 0
-553 550 0
554 -13 -3 0
-554 13 0
-554 3 0
555 -554 -20 0
-555 554 0
-555 20 0
556 -918 -553 0
-556 918 0
-556 553 0
557 -768 -2 0
-557 768 0
-557 2 0
558 -557 -850 0
-558 557 0
-558 850 0
559 -919 -556 0
-559 919 0
-559 556 0
560 -50 -40 0
-560 50 0
-560 40 0
561 -560 -773 0
-561 560 0
-561 773 0
562 -920 -559 0
-562 920 0
-562 559 0
563 -13 -9 0
-563 13 0
-563 9 0
564 -563 -850 0
-564 563 0
-564 850 0
565 -921 -562 0
-565 921 0
-565 562 0
566 -772 -762 0
-566 772 0
-566 762 0
567 -566 -14 0
-567 566 0
-567 14 0
568 -922 -565 0
-568 922 0
-568 565 0
569 -41 -27 0
-569 41 0
-569 27 0
570 -569 -47 0
-570 569 0
-570 47 0
571 -923 -568 0
-571 923 0
-571 568 0
572 -49 -26 0
-572 49 0
-572 26 0
573 -572 -48 0
-573 572 0
-573 48 0
574 -924 -571 0
-574 924 0
-574 571 0
575 -35 -4 0
-575 35 0
-575 4 0
576 -575 -31 0
-576 575 0
-576 31 0
577 -925 -574 0
-577 925 0
-577 574 0
578 -731 -801 0
-578 731 0
-578 801 0
579 -578 -50 0
-579 578 0
-579 50 0
580 -926 -577 0
-580 926 0
-580 577 0
581 -28 -727 0
-581 28 0
-581 727 0
582 -581 -46 0
-582 581 0
-582 46 0
583 -927 -580 0
-583 927 0
-583 580 0
584 -30 -708 0
-584 30 0
-584 708 0
585 -584 -43 0
-585 584 0
-585 43 0
586 -928 -583 0
-586 928 0
-586 583 0
587 -33 -5 0
-587 33 0
-587 5 0
588 -587 -48 0
-588 587 0
-588 48 0
589 -929 -586 0
-589 929 0
-589 586 0
590 -737 -764 0
-590 737 0
-590 764 0
591 -590 -34 0
-591 590 0
-591 34 0
592 -930 -589 0
-592 930 0
-592 589 0
593 -14 -708 0
-593 14 0
-593 708 0
594 -593 -775 0
-594 593 0
-594 775 0
595 -931 -592 0
-595 931 0
-595 592 0
596 -38 -2 0
-596 38 0
-596 2 0
597 -596 -34 0
-597 596 0
-597 34 0
598 -932 -595 0
-598 932 0
-598 595 0
599 -707 -2 0
-599 707 0
-599 2 0
600 -599 -709 0
-600 599 0
-600 709 0
601 -933 -598 0
-601 933 0
-601 598 0
602 -791 -27 0
-602 791 0
-602 27 0
603 -602 -803 0
-603 602 0
-603 803 0
604 -934 -601 0
-604 934 0
-604 601 0
605 -755 -4 0
-605 755 0
-605 4 0
606 -605 -704 0
-606 605 0
-606 704 0
607 -935 -604 0
-607 935 0
-607 604 0
608 -42 -10 0
-608 42 0
-608 10 0
609 -608 -792 0
-609 608 0
-609 792 0
610 -936 -607 0
-610 936 0
-610 607 0
611 -27 -707 0
-611 27 0
-611 707 0
612 -611 -20 0
-612 611 0
-612 20 0
613 -937 -610 0
-613 937 0
-613 610 0
614 -10 -741 0
-614 10 0
-614 741 0
615 -614 -732 0
-615 614 0
-615 732 0
616 -938 -613 0
-616 938 0
-616 613 0
617 -16 -6 0
-617 16 0
-617 6 0
618 -617 -48 0
-618 617 0
-618 48 0
619 -939 -616 0
-619 939 0
-619 616 0
620 -708 -699 0
-620 708 0
-620 699 0
621 -620 -775 0
-621 620 0
-621 775 0
622 -940 -619 0
-622 940 0
-622 619 0
623 -779 -731 0
-623 779 0
-623 731 0
624 -623 -705 0
-624 623 0
-624 705 0
625 -941 -622 0
-625 941 0
-625 622 0
626 -50 -699 0
-626 50 0
-626 699 0
627 -626 -47 0
-627 626 0
-627 47 0
628 -942 -625 0
-628 942 0
-628 625 0
629 -717 -10 0
-629 717 0
-629 10 0
630 -629 -858 0
-630 629 0
-630 858 0
631 -943 -628 0
-631 943 0
-631 628 0
632 -820 -17 0
-632 820 0
-632 17 0
633 -632 -709 0
-633 632 0
-633 709 0
634 -944 -631 0
-634 944 0
-634 631 0
635 -755 -718 0
-635 755 0
-635 718 0
636 -635 -25 0
-636 635 0
-636 25 0
637 -945 -634 0
-637 945 0
-637 634 0
638 -50 -44 0
-638 50 0
-638 44 0
639 -638 -46 0
-639 638 0
-639 46 0
640 -946 -637 0
-640 946 0
-640 637 0
641 -806 -4 0
-641 806 0
-641 4 0
642 -641 -699 0
-642 641 0
-642 699 0
643 -947 -640 0
-643 947 0
-643 640 0
644 -35 -748 0
-644 35 0
-644 748 0
645 -644 -23 0
-645 644 0
-645 23 0
646 -948 -643 0
-646 948 0
-646 643 0
647 -17 -741 0
-647 17 0
-647 741 0
648 -647 -792 0
-648 647 0
-648 792 0
649 -949 -646 0
-649 949 0
-649 646 0
650 -42 -16 0
-650 42 0
-650 16 0
651 -650 -17 0
-651 650 0
-651 17 0
652 -950 -649 0
-652 950 0
-652 649 0
653 -33 -14 0
-653 33 0
-653 14 0
654 -653 -40 0
-654 653 0
-654 40 0
655 -951 -652 0
-655 951 0
-655 652 0
656 -769 -705 0
-656 769 0
-656 705 0
657 -656 -48 0
-657 656 0
-657 48 0
658 -952 -655 0
-658 952 0
-658 655 0
659 -795 -33 0
-659 795 0
-659 33 0
660 -659 -9 0
-660 659 0
-660 9 0
661 -953 -658 0
-661 953 0
-661 658 0
662 -723 -10 0
-662 723 0
-662 10 0
663 -662 -792 0
-663 662 0
-663 792 0
664 -954 -661 0
-664 954 0
-664 661 0
665 -33 -699 0
-665 33 0
-665 699 0
666 -665 -732 0
-666 665 0
-666 732 0
667 -955 -664 0
-667 955 0
-667 664 0
668 -42 -728 0
-668 42 0
-668 728 0
669 -668 -49 0
-669 668 0
-669 49 0
670 -956 -667 0
-670 956 0
-670 667 0
671 -456 -751 0
-671 456 0
-671 751 0
672 -957 -670 0
-672 957 0
-672 670 0
673 -795 -727 0
-673 795 0
-673 727 0
674 -673 -9 0
-674 673 0
-674 9 0
675 -958 -672 0
-675 958 0
-675 672 0
676 -26 -755 0
-676 26 0
-676 755 0
677 -676 -715 0
-677 676 0
-677 715 0
678 -959 -675 0
-678 959 0
-678 675 0
679 -39 -705 0
-679 39 0
-679 705 0
680 -679 -19 0
-680 679 0
-680 19 0
681 -960 -678 0
-681 960 0
-681 678 0
682 -779 -748 0
-682 779 0
-682 748 0
683 -682 -709 0
-683 682 0
-683 709 0
684 -961 -681 0
-684 961 0
-684 681 0
685 -781 -806 0
-685 781 0
-685 806 0
686 -685 -32 0
-686 685 0
-686 32 0
687 -962 -684 0
-687 962 0
-687 684 0
688 -27 -708 0
-688 27 0
-688 708 0
689 -688 -38 0
-689 688 0
-689 38 0
690 -963 -687 0
-690 963 0
-690 687 0
691 -8 -5 0
-691 8 0
-691 5 0
692 -691 -764 0
-692 691 0
-692 764 0
693 -964 -690 0
-693 964 0
-693 690 0
694 -714 -786 0
-694 714 0
-694 786 0
695 -694 -9 0
-695 694 0
-695 9 0
696 -965 -693 0
-696 965 0
-696 693 0
697 -167 -29 0
-697 167 0
-697 29 0
698 -966 -696 0
-698 966 0
-698 696 0
-699 -2 0
699 2 0
-700 -3 0
700 3 0
-701 -6 0
701 6 0
-702 -54 0
702 54 0
-703 -52 0
703 52 0
-704 -8 0
704 8 0
-705 -9 0
705 9 0
-706 -57 0
706 57 0
-707 -10 0
707 10 0
-708 -4 0
708 4 0
-709 -11 0
709 11 0
-710 -60 0
710 60 0
-711 -12 0
711 12 0
-712 -63 0
712 63 0
-713 -66 0
713 66 0
-714 -18 0
714 18 0
-715 -19 0
715 19 0
-716 -69 0
716 69 0
-717 -20 0
717 20 0
-718 -21 0
718 21 0
-719 -72 0
719 72 0
-720 -75 0
720 75 0
-721 -24 0
721 24 0
-722 -78 0
722 78 0
-723 -25 0
723 25 0
-724 -81 0
724 81 0
-725 -84 0
725 84 0
-726 -87 0
726 87 0
-727 -13 0
727 13 0
-728 -28 0
728 28 0
-729 -90 0
729 90 0
-730 -93 0
730 93 0
-731 -27 0
731 27 0
-732 -31 0
732 31 0
-733 -96 0
733 96 0
-734 -99 0
734 99 0
-735 -32 0
735 32 0
-736 -102 0
736 102 0
-737 -33 0
737 33 0
-738 -105 0
738 105 0
-739 -15 0
739 15 0
-740 -108 0
740 108 0
-741 -7 0
741 7 0
-742 -111 0
742 111 0
-743 -114 0
743 114 0
-744 -36 0
744 36 0
-745 -117 0
745 117 0
-746 -120 0
746 120 0
-747 -123 0
747 123 0
-748 -17 0
748 17 0
-749 -126 0
749 126 0
-750 -129 0
750 129 0
-751 -39 0
751 39 0
-752 -132 0
752 132 0
-753 -135 0
753 135 0
-754 -138 0
754 138 0
-755 -22 0
755 22 0
-756 -141 0
756 141 0
-757 -144 0
757 144 0
-758 -147 0
758 147 0
-759 -150 0
759 150 0
-760 -153 0
760 153 0
-761 -156 0
761 156 0
-762 -1 0
762 1 0
-763 -159 0
763 159 0
-764 -30 0
764 30 0
-765 -162 0
765 162 0
-766 -34 0
766 34 0
-767 -165 0
767 165 0
-768 -42 0
768 42 0
-769 -14 0
769 14 0
-770 -168 0
770 168 0
-771 -171 0
771 171 0
-772 -45 0
772 45 0
-773 -46 0
773 46 0
-774 -174 0
774 174 0
-775 -47 0
775 47 0
-776 -177 0
776 177 0
-777 -180 0
777 180 0
-778 -183 0
778 183 0
-779 -35 0
779 35 0
-780 -186 0
780 186 0
-781 -49 0
781 49 0
-782 -189 0
782 189 0
-783 -192 0
783 192 0
-784 -195 0
784 195 0
-785 -198 0
785 198 0
-786 -16 0
786 16 0
-787 -201 0
787 201 0
-788 -204 0
788 204 0
-789 -207 0
789 207 0
-790 -210 0
790 210 0
-791 -38 0
791 38 0
-792 -43 0
792 43 0
-793 -213 0
793 213 0
-794 -216 0
794 216 0
-795 -50 0
795 50 0
-796 -219 0
796 219 0
-797 -222 0
797 222 0
-798 -225 0
798 225 0
-799 -228 0
799 228 0
-800 -231 0
800 231 0
-801 -5 0
801 5 0
-802 -234 0
802 234 0
-803 -29 0
803 29 0
-804 -237 0
804 237 0
-805 -240 0
805 240 0
-806 -41 0
806 41 0
-807 -243 0
807 243 0
-808 -246 0
808 246 0
-809 -249 0
809 249 0
-810 -252 0
810 252 0
-811 -254 0
811 254 0
-812 -257 0
812 257 0
-813 -260 0
813 260 0
-814 -263 0
814 263 0
-815 -266 0
815 266 0
-816 -269 0
816 269 0
-817 -272 0
817 272 0
-818 -275 0
818 275 0
-819 -278 0
819 278 0
-820 -26 0
820 26 0
-821 -281 0
821 281 0
-822 -284 0
822 284 0
-823 -287 0
823 287 0
-824 -290 0
824 290 0
-825 -293 0
825 293 0
-826 -296 0
826 296 0
-827 -299 0
827 299 0
-828 -302 0
828 302 0
-829 -305 0
829 305 0
-830 -308 0
830 308 0
-831 -311 0
831 311 0
-832 -314 0
832 314 0
-833 -317 0
833 317 0
-834 -320 0
834 320 0
-835 -323 0
835 323 0
-836 -326 0
836 326 0
-837 -329 0
837 329 0
-838 -332 0
838 332 0
-839 -335 0
839 335 0
-840 -338 0
840 338 0
-841 -37 0
841 37 0
-842 -341 0
842 341 0
-843 -44 0
843 44 0
-844 -344 0
844 344 0
-845 -347 0
845 347 0
-846 -350 0
846 350 0
-847 -353 0
847 353 0
-848 -356 0
848 356 0
-849 -359 0
849 359 0
-850 -40 0
850 40 0
-851 -362 0
851 362 0
-852 -365 0
852 365 0
-853 -368 0
853 368 0
-854 -371 0
854 371 0
-855 -374 0
855 374 0
-856 -377 0
856 377 0
-857 -379 0
857 379 0
-858 -48 0
858 48 0
-859 -382 0
859 382 0
-860 -385 0
860 385 0
-861 -388 0
861 388 0
-862 -391 0
862 391 0
-863 -394 0
863 394 0
-864 -397 0
864 397 0
-865 -400 0
865 400 0
-866 -403 0
866 403 0
-867 -406 0
867 406 0
-868 -409 0
868 409 0
-869 -412 0
869 412 0
-870 -23 0
870 23 0
-871 -415 0
871 415 0
-872 -418 0
872 418 0
-873 -421 0
873 421 0
-874 -424 0
874 424 0
-875 -427 0
875 427 0
-876 -430 0
876 430 0
-877 -433 0
877 433 0
-878 -436 0
878 436 0
-879 -439 0
879 439 0
-880 -442 0
880 442 0
-881 -445 0
881 445 0
-882 -448 0
882 448 0
-883 -451 0
883 451 0
-884 -454 0
884 454 0
-885 -457 0
885 457 0
-886 -459 0
886 459 0
-887 -462 0
887 462 0
-888 -465 0
888 465 0
-889 -468 0
889 468 0
-890 -471 0
890 471 0
-891 -474 0
891 474 0
-892 -477 0
892 477 0
-893 -480 0
893 480 0
-894 -483 0
894 483 0
-895 -486 0
895 486 0
-896 -489 0
896 489 0
-897 -492 0
897 492 0
-898 -495 0
898 495 0
-899 -498 0
899 498 0
-900 -501 0
900 501 0
-901 -504 0
901 504 0
-902 -507 0
902 507 0
-903 -510 0
903 510 0
-904 -513 0
904 513 0
-905 -516 0
905 516 0
-906 -519 0
906 519 0
-907 -522 0
907 522 0
-908 -525 0
908 525 0
-909 -528 0
909 528 0
-910 -531 0
910 531 0
-911 -534 0
911 534 0
-912 -537 0
912 537 0
-913 -540 0
913 540 0
-914 -543 0
914 543 0
-915 -546 0
915 546 0
-916 -549 0
916 549 0
-917 -552 0
917 552 0
-918 -555 0
918 555 0
-919 -558 0
919 558 0
-920 -561 0
920 561 0
-921 -564 0
921 564 0
-922 -567 0
922 567 0
-923 -570 0
923 570 0
-924 -573 0
924 573 0
-925 -576 0
925 576 0
-926 -579 0
926 579 0
-927 -582 0
927 582 0
-928 -585 0
928 585 0
-929 -588 0
929 588 0
-930 -591 0
930 591 0
-931 -594 0
931 594 0
-932 -597 0
932 597 0
-933 -600 0
933 600 0
-934 -603 0
934 603 0
-935 -606 0
935 606 0
-936 -609 0
936 609 0
-937 -612 0
937 612 0
-938 -615 0
938 615 0
-939 -618 0
939 618 0
-940 -621 0
940 621 0
-941 -624 0
941 624 0
-942 -627 0
942 627 0
-943 -630 0
943 630 0
-944 -633 0
944 633 0
-945 -636 0
945 636 0
-946 -639 0
946 639 0
-947 -642 0
947 642 0
-948 -645 0
948 645 0
-949 -648 0
949 648 0
-950 -651 0
950 651 0
-951 -654 0
951 654 0
-952 -657 0
952 657 0
-953 -660 0
953 660 0
-954 -663 0
954 663 0
-955 -666 0
955 666 0
-956 -669 0
956 669 0
-957 -671 0
957 671 0
-958 -674 0
958 674 0
-959 -677 0
959 677 0
-960 -680 0
960 680 0
-961 -683 0
961 683 0
-962 -686 0
962 686 0
-963 -689 0
963 689 0
-964 -692 0
964 692 0
-965 -695 0
965 695 0
-966 -697 0
966 697 0
698 0
